(set-option :produce-models true)
(set-logic QF_LRA)
(set-info :notes | Strip-packing problem.|)
(declare-fun x0 () Real)
(declare-fun y0 () Real)
(declare-fun x1 () Real)
(declare-fun y1 () Real)
(declare-fun x2 () Real)
(declare-fun y2 () Real)
(declare-fun x3 () Real)
(declare-fun y3 () Real)
(declare-fun x4 () Real)
(declare-fun y4 () Real)
(declare-fun x5 () Real)
(declare-fun y5 () Real)
(declare-fun x6 () Real)
(declare-fun y6 () Real)
(declare-fun x7 () Real)
(declare-fun y7 () Real)
(declare-fun x8 () Real)
(declare-fun y8 () Real)
(declare-fun x9 () Real)
(declare-fun y9 () Real)
(declare-fun x10 () Real)
(declare-fun y10 () Real)
(declare-fun x11 () Real)
(declare-fun y11 () Real)
(declare-fun z () Real)
(declare-fun c () Real)
(assert (and (= c z) (and (>= x0 0) 
(and (>= y0 0) 
(and (>= x1 0) 
(and (>= y1 0) 
(and (>= x2 0) 
(and (>= y2 0) 
(and (>= x3 0) 
(and (>= y3 0) 
(and (>= x4 0) 
(and (>= y4 0) 
(and (>= x5 0) 
(and (>= y5 0) 
(and (>= x6 0) 
(and (>= y6 0) 
(and (>= x7 0) 
(and (>= y7 0) 
(and (>= x8 0) 
(and (>= y8 0) 
(and (>= x9 0) 
(and (>= y9 0) 
(and (>= x10 0) 
(and (>= y10 0) 
(and (>= x11 0) 
(and (>= y11 0) 
(and (>= z 0) 
(and (>= c 0) 
(and (<= (+ x0 0.3386169428) z) 
(and (<= 0.8898379511 y0) 
(and (<= y0 1.0) 
(and (<= x0 (- 2.5223024052 0.3386169428)) 
(and (>= x0 0) 
(and (<= (+ x1 0.1246834979) z) 
(and (<= 0.8490845197 y1) 
(and (<= y1 1.0) 
(and (<= x1 (- 2.5223024052 0.1246834979)) 
(and (>= x1 0) 
(and (<= (+ x2 0.2536048038) z) 
(and (<= 0.7476162325 y2) 
(and (<= y2 1.0) 
(and (<= x2 (- 2.5223024052 0.2536048038)) 
(and (>= x2 0) 
(and (<= (+ x3 0.0395052257) z) 
(and (<= 0.7103746222 y3) 
(and (<= y3 1.0) 
(and (<= x3 (- 2.5223024052 0.0395052257)) 
(and (>= x3 0) 
(and (<= (+ x4 0.4983973294) z) 
(and (<= 0.6825649095 y4) 
(and (<= y4 1.0) 
(and (<= x4 (- 2.5223024052 0.4983973294)) 
(and (>= x4 0) 
(and (<= (+ x5 0.9730632212) z) 
(and (<= 0.6158288955 y5) 
(and (<= y5 1.0) 
(and (<= x5 (- 2.5223024052 0.9730632212)) 
(and (>= x5 0) 
(and (<= (+ x6 0.2944313844) z) 
(and (<= 0.4411081314 y6) 
(and (<= y6 1.0) 
(and (<= x6 (- 2.5223024052 0.2944313844)) 
(and (>= x6 0) 
(and (<= (+ x7 0.2338925622) z) 
(and (<= 0.2957801332 y7) 
(and (<= y7 1.0) 
(and (<= x7 (- 2.5223024052 0.2338925622)) 
(and (>= x7 0) 
(and (<= (+ x8 0.4780160903) z) 
(and (<= 0.1933092229 y8) 
(and (<= y8 1.0) 
(and (<= x8 (- 2.5223024052 0.4780160903)) 
(and (>= x8 0) 
(and (<= (+ x9 0.9378072087) z) 
(and (<= 0.1873909996 y9) 
(and (<= y9 1.0) 
(and (<= x9 (- 2.5223024052 0.9378072087)) 
(and (>= x9 0) 
(and (<= (+ x10 0.1536721909) z) 
(and (<= 0.0548060855 y10) 
(and (<= y10 1.0) 
(and (<= x10 (- 2.5223024052 0.1536721909)) 
(and (>= x10 0) 
(and (<= (+ x11 0.5984090631) z) 
(and (<= 0.0015529949 y11) 
(and (<= y11 1.0) 
(and (<= x11 (- 2.5223024052 0.5984090631)) 
(and (>= x11 0) 
(and (<= c 2.5223024052) 
(and (or (<= (+ x0 0.3386169428) x1) (or (<= (+ x1 0.1246834979) x0) (or (>= (- y0 0.8898379511) y1) (or (>= (- y1 0.8490845197) y0))))) 
(and (or (<= (+ x0 0.3386169428) x2) (or (<= (+ x2 0.2536048038) x0) (or (>= (- y0 0.8898379511) y2) (or (>= (- y2 0.7476162325) y0))))) 
(and (or (<= (+ x0 0.3386169428) x3) (or (<= (+ x3 0.0395052257) x0) (or (>= (- y0 0.8898379511) y3) (or (>= (- y3 0.7103746222) y0))))) 
(and (or (<= (+ x0 0.3386169428) x4) (or (<= (+ x4 0.4983973294) x0) (or (>= (- y0 0.8898379511) y4) (or (>= (- y4 0.6825649095) y0))))) 
(and (or (<= (+ x0 0.3386169428) x5) (or (<= (+ x5 0.9730632212) x0) (or (>= (- y0 0.8898379511) y5) (or (>= (- y5 0.6158288955) y0))))) 
(and (or (<= (+ x0 0.3386169428) x6) (or (<= (+ x6 0.2944313844) x0) (or (>= (- y0 0.8898379511) y6) (or (>= (- y6 0.4411081314) y0))))) 
(and (or (<= (+ x0 0.3386169428) x7) (or (<= (+ x7 0.2338925622) x0) (or (>= (- y0 0.8898379511) y7) (or (>= (- y7 0.2957801332) y0))))) 
(and (or (<= (+ x0 0.3386169428) x8) (or (<= (+ x8 0.4780160903) x0) (or (>= (- y0 0.8898379511) y8) (or (>= (- y8 0.1933092229) y0))))) 
(and (or (<= (+ x0 0.3386169428) x9) (or (<= (+ x9 0.9378072087) x0) (or (>= (- y0 0.8898379511) y9) (or (>= (- y9 0.1873909996) y0))))) 
(and (or (<= (+ x0 0.3386169428) x10) (or (<= (+ x10 0.1536721909) x0) (or (>= (- y0 0.8898379511) y10) (or (>= (- y10 0.0548060855) y0))))) 
(and (or (<= (+ x0 0.3386169428) x11) (or (<= (+ x11 0.5984090631) x0) (or (>= (- y0 0.8898379511) y11) (or (>= (- y11 0.0015529949) y0))))) 
(and (or (<= (+ x1 0.1246834979) x2) (or (<= (+ x2 0.2536048038) x1) (or (>= (- y1 0.8490845197) y2) (or (>= (- y2 0.7476162325) y1))))) 
(and (or (<= (+ x1 0.1246834979) x3) (or (<= (+ x3 0.0395052257) x1) (or (>= (- y1 0.8490845197) y3) (or (>= (- y3 0.7103746222) y1))))) 
(and (or (<= (+ x1 0.1246834979) x4) (or (<= (+ x4 0.4983973294) x1) (or (>= (- y1 0.8490845197) y4) (or (>= (- y4 0.6825649095) y1))))) 
(and (or (<= (+ x1 0.1246834979) x5) (or (<= (+ x5 0.9730632212) x1) (or (>= (- y1 0.8490845197) y5) (or (>= (- y5 0.6158288955) y1))))) 
(and (or (<= (+ x1 0.1246834979) x6) (or (<= (+ x6 0.2944313844) x1) (or (>= (- y1 0.8490845197) y6) (or (>= (- y6 0.4411081314) y1))))) 
(and (or (<= (+ x1 0.1246834979) x7) (or (<= (+ x7 0.2338925622) x1) (or (>= (- y1 0.8490845197) y7) (or (>= (- y7 0.2957801332) y1))))) 
(and (or (<= (+ x1 0.1246834979) x8) (or (<= (+ x8 0.4780160903) x1) (or (>= (- y1 0.8490845197) y8) (or (>= (- y8 0.1933092229) y1))))) 
(and (or (<= (+ x1 0.1246834979) x9) (or (<= (+ x9 0.9378072087) x1) (or (>= (- y1 0.8490845197) y9) (or (>= (- y9 0.1873909996) y1))))) 
(and (or (<= (+ x1 0.1246834979) x10) (or (<= (+ x10 0.1536721909) x1) (or (>= (- y1 0.8490845197) y10) (or (>= (- y10 0.0548060855) y1))))) 
(and (or (<= (+ x1 0.1246834979) x11) (or (<= (+ x11 0.5984090631) x1) (or (>= (- y1 0.8490845197) y11) (or (>= (- y11 0.0015529949) y1))))) 
(and (or (<= (+ x2 0.2536048038) x3) (or (<= (+ x3 0.0395052257) x2) (or (>= (- y2 0.7476162325) y3) (or (>= (- y3 0.7103746222) y2))))) 
(and (or (<= (+ x2 0.2536048038) x4) (or (<= (+ x4 0.4983973294) x2) (or (>= (- y2 0.7476162325) y4) (or (>= (- y4 0.6825649095) y2))))) 
(and (or (<= (+ x2 0.2536048038) x5) (or (<= (+ x5 0.9730632212) x2) (or (>= (- y2 0.7476162325) y5) (or (>= (- y5 0.6158288955) y2))))) 
(and (or (<= (+ x2 0.2536048038) x6) (or (<= (+ x6 0.2944313844) x2) (or (>= (- y2 0.7476162325) y6) (or (>= (- y6 0.4411081314) y2))))) 
(and (or (<= (+ x2 0.2536048038) x7) (or (<= (+ x7 0.2338925622) x2) (or (>= (- y2 0.7476162325) y7) (or (>= (- y7 0.2957801332) y2))))) 
(and (or (<= (+ x2 0.2536048038) x8) (or (<= (+ x8 0.4780160903) x2) (or (>= (- y2 0.7476162325) y8) (or (>= (- y8 0.1933092229) y2))))) 
(and (or (<= (+ x2 0.2536048038) x9) (or (<= (+ x9 0.9378072087) x2) (or (>= (- y2 0.7476162325) y9) (or (>= (- y9 0.1873909996) y2))))) 
(and (or (<= (+ x2 0.2536048038) x10) (or (<= (+ x10 0.1536721909) x2) (or (>= (- y2 0.7476162325) y10) (or (>= (- y10 0.0548060855) y2))))) 
(and (or (<= (+ x2 0.2536048038) x11) (or (<= (+ x11 0.5984090631) x2) (or (>= (- y2 0.7476162325) y11) (or (>= (- y11 0.0015529949) y2))))) 
(and (or (<= (+ x3 0.0395052257) x4) (or (<= (+ x4 0.4983973294) x3) (or (>= (- y3 0.7103746222) y4) (or (>= (- y4 0.6825649095) y3))))) 
(and (or (<= (+ x3 0.0395052257) x5) (or (<= (+ x5 0.9730632212) x3) (or (>= (- y3 0.7103746222) y5) (or (>= (- y5 0.6158288955) y3))))) 
(and (or (<= (+ x3 0.0395052257) x6) (or (<= (+ x6 0.2944313844) x3) (or (>= (- y3 0.7103746222) y6) (or (>= (- y6 0.4411081314) y3))))) 
(and (or (<= (+ x3 0.0395052257) x7) (or (<= (+ x7 0.2338925622) x3) (or (>= (- y3 0.7103746222) y7) (or (>= (- y7 0.2957801332) y3))))) 
(and (or (<= (+ x3 0.0395052257) x8) (or (<= (+ x8 0.4780160903) x3) (or (>= (- y3 0.7103746222) y8) (or (>= (- y8 0.1933092229) y3))))) 
(and (or (<= (+ x3 0.0395052257) x9) (or (<= (+ x9 0.9378072087) x3) (or (>= (- y3 0.7103746222) y9) (or (>= (- y9 0.1873909996) y3))))) 
(and (or (<= (+ x3 0.0395052257) x10) (or (<= (+ x10 0.1536721909) x3) (or (>= (- y3 0.7103746222) y10) (or (>= (- y10 0.0548060855) y3))))) 
(and (or (<= (+ x3 0.0395052257) x11) (or (<= (+ x11 0.5984090631) x3) (or (>= (- y3 0.7103746222) y11) (or (>= (- y11 0.0015529949) y3))))) 
(and (or (<= (+ x4 0.4983973294) x5) (or (<= (+ x5 0.9730632212) x4) (or (>= (- y4 0.6825649095) y5) (or (>= (- y5 0.6158288955) y4))))) 
(and (or (<= (+ x4 0.4983973294) x6) (or (<= (+ x6 0.2944313844) x4) (or (>= (- y4 0.6825649095) y6) (or (>= (- y6 0.4411081314) y4))))) 
(and (or (<= (+ x4 0.4983973294) x7) (or (<= (+ x7 0.2338925622) x4) (or (>= (- y4 0.6825649095) y7) (or (>= (- y7 0.2957801332) y4))))) 
(and (or (<= (+ x4 0.4983973294) x8) (or (<= (+ x8 0.4780160903) x4) (or (>= (- y4 0.6825649095) y8) (or (>= (- y8 0.1933092229) y4))))) 
(and (or (<= (+ x4 0.4983973294) x9) (or (<= (+ x9 0.9378072087) x4) (or (>= (- y4 0.6825649095) y9) (or (>= (- y9 0.1873909996) y4))))) 
(and (or (<= (+ x4 0.4983973294) x10) (or (<= (+ x10 0.1536721909) x4) (or (>= (- y4 0.6825649095) y10) (or (>= (- y10 0.0548060855) y4))))) 
(and (or (<= (+ x4 0.4983973294) x11) (or (<= (+ x11 0.5984090631) x4) (or (>= (- y4 0.6825649095) y11) (or (>= (- y11 0.0015529949) y4))))) 
(and (or (<= (+ x5 0.9730632212) x6) (or (<= (+ x6 0.2944313844) x5) (or (>= (- y5 0.6158288955) y6) (or (>= (- y6 0.4411081314) y5))))) 
(and (or (<= (+ x5 0.9730632212) x7) (or (<= (+ x7 0.2338925622) x5) (or (>= (- y5 0.6158288955) y7) (or (>= (- y7 0.2957801332) y5))))) 
(and (or (<= (+ x5 0.9730632212) x8) (or (<= (+ x8 0.4780160903) x5) (or (>= (- y5 0.6158288955) y8) (or (>= (- y8 0.1933092229) y5))))) 
(and (or (<= (+ x5 0.9730632212) x9) (or (<= (+ x9 0.9378072087) x5) (or (>= (- y5 0.6158288955) y9) (or (>= (- y9 0.1873909996) y5))))) 
(and (or (<= (+ x5 0.9730632212) x10) (or (<= (+ x10 0.1536721909) x5) (or (>= (- y5 0.6158288955) y10) (or (>= (- y10 0.0548060855) y5))))) 
(and (or (<= (+ x5 0.9730632212) x11) (or (<= (+ x11 0.5984090631) x5) (or (>= (- y5 0.6158288955) y11) (or (>= (- y11 0.0015529949) y5))))) 
(and (or (<= (+ x6 0.2944313844) x7) (or (<= (+ x7 0.2338925622) x6) (or (>= (- y6 0.4411081314) y7) (or (>= (- y7 0.2957801332) y6))))) 
(and (or (<= (+ x6 0.2944313844) x8) (or (<= (+ x8 0.4780160903) x6) (or (>= (- y6 0.4411081314) y8) (or (>= (- y8 0.1933092229) y6))))) 
(and (or (<= (+ x6 0.2944313844) x9) (or (<= (+ x9 0.9378072087) x6) (or (>= (- y6 0.4411081314) y9) (or (>= (- y9 0.1873909996) y6))))) 
(and (or (<= (+ x6 0.2944313844) x10) (or (<= (+ x10 0.1536721909) x6) (or (>= (- y6 0.4411081314) y10) (or (>= (- y10 0.0548060855) y6))))) 
(and (or (<= (+ x6 0.2944313844) x11) (or (<= (+ x11 0.5984090631) x6) (or (>= (- y6 0.4411081314) y11) (or (>= (- y11 0.0015529949) y6))))) 
(and (or (<= (+ x7 0.2338925622) x8) (or (<= (+ x8 0.4780160903) x7) (or (>= (- y7 0.2957801332) y8) (or (>= (- y8 0.1933092229) y7))))) 
(and (or (<= (+ x7 0.2338925622) x9) (or (<= (+ x9 0.9378072087) x7) (or (>= (- y7 0.2957801332) y9) (or (>= (- y9 0.1873909996) y7))))) 
(and (or (<= (+ x7 0.2338925622) x10) (or (<= (+ x10 0.1536721909) x7) (or (>= (- y7 0.2957801332) y10) (or (>= (- y10 0.0548060855) y7))))) 
(and (or (<= (+ x7 0.2338925622) x11) (or (<= (+ x11 0.5984090631) x7) (or (>= (- y7 0.2957801332) y11) (or (>= (- y11 0.0015529949) y7))))) 
(and (or (<= (+ x8 0.4780160903) x9) (or (<= (+ x9 0.9378072087) x8) (or (>= (- y8 0.1933092229) y9) (or (>= (- y9 0.1873909996) y8))))) 
(and (or (<= (+ x8 0.4780160903) x10) (or (<= (+ x10 0.1536721909) x8) (or (>= (- y8 0.1933092229) y10) (or (>= (- y10 0.0548060855) y8))))) 
(and (or (<= (+ x8 0.4780160903) x11) (or (<= (+ x11 0.5984090631) x8) (or (>= (- y8 0.1933092229) y11) (or (>= (- y11 0.0015529949) y8))))) 
(and (or (<= (+ x9 0.9378072087) x10) (or (<= (+ x10 0.1536721909) x9) (or (>= (- y9 0.1873909996) y10) (or (>= (- y10 0.0548060855) y9))))) 
(and (or (<= (+ x9 0.9378072087) x11) (or (<= (+ x11 0.5984090631) x9) (or (>= (- y9 0.1873909996) y11) (or (>= (- y11 0.0015529949) y9))))) 
(and (or (<= (+ x10 0.1536721909) x11) (or (<= (+ x11 0.5984090631) x10) (or (>= (- y10 0.0548060855) y11) (or (>= (- y11 0.0015529949) y10))))) )))))))))))))))))))))))))))))))))))))))))))))))))))))))))))))))))))))))))))))))))))))))))))))))))))))))))))))))))))))))))))))))))))))))))))))))))))))))))))
(minimize c)
(check-sat)
(get-objectives)
(exit)
